20	5
0	7	5	2	1	3	4	7	6
1	1	17
2	3	10	14	19
3	3	11	15	19
4	2	8	13
5	4	18	13	19	20
6	5	17	15	18	19	10
7	1	16
8	2	9	12
9	1	21
10	4	9	20	16	12
11	1	21
12	1	21
13	1	21
14	1	21
15	1	21
16	1	21
17	1	21
18	1	21
19	1	21
20	1	21
21	0
0	0	0	0	0	0	0
1	2	1	0	0	3	0
2	5	1	2	4	1	2
3	10	0	0	5	0	4
4	1	1	4	3	0	5
5	4	1	1	2	4	1
6	9	4	5	5	4	4
7	9	3	1	1	5	5
8	3	3	3	1	4	5
9	10	2	0	4	4	0
10	5	1	2	5	4	0
11	3	0	5	5	0	3
12	7	0	5	0	1	0
13	7	5	2	3	3	3
14	5	1	3	0	0	0
15	5	4	0	3	5	4
16	1	4	3	4	5	5
17	1	4	5	0	3	0
18	8	5	1	4	4	3
19	7	1	1	0	0	3
20	2	0	5	2	0	1
21	0	0	0	0	0	0
5	5	5	5	5
